(declare-const X String)
; SbAts[^\n\r]*Subject\x3a\d+dcww\x2Edmcast\x2Ecom
(assert (not (str.in_re X (re.++ (str.to_re "SbAts") (re.* (re.union (str.to_re "\u{a}") (str.to_re "\u{d}"))) (str.to_re "Subject:") (re.+ (re.range "0" "9")) (str.to_re "dcww.dmcast.com\u{a}")))))
; Try2Find\x23\x23\x23\x23ToolbarServerUser\x3A
(assert (str.in_re X (str.to_re "Try2Find####ToolbarServerUser:\u{a}")))
; /^\/[a-z]{2,20}\.php\?[a-z]{2,10}\x3d[a-zA-Z0-9\x2f\x2b]+\x3d$/I
(assert (not (str.in_re X (re.++ (str.to_re "//") ((_ re.loop 2 20) (re.range "a" "z")) (str.to_re ".php?") ((_ re.loop 2 10) (re.range "a" "z")) (str.to_re "=") (re.+ (re.union (re.range "a" "z") (re.range "A" "Z") (re.range "0" "9") (str.to_re "/") (str.to_re "+"))) (str.to_re "=/I\u{a}")))))
(check-sat)
